2
199
299
40	36
1	2	7	10	33	3	
2	1	11	9	
3	1	8	14	
4	2	7	17	17	3	
5	1	9	5	
6	2	19	3	17	3	
7	1	18	7	
8	1	7	13	
9	2	10	9	8	4	
10	2	8	15	14	5	
11	1	7	12	
12	2	14	10	13	8	
13	2	4	10	12	4	
14	2	19	6	19	2	
15	1	24	3	
16	1	15	8	
17	2	8	9	16	7	
18	1	26	4	
19	1	18	9	
20	1	7	14	
21	1	21	4	
22	2	5	11	30	3	
23	1	28	2	
24	1	18	9	
25	2	6	13	23	3	
26	1	19	7	
27	2	7	12	34	3	
28	2	7	11	34	3	
29	1	12	9	
30	1	7	9	
31	1	15	5	
32	1	16	4	
33	1	13	7	
34	2	14	8	9	5	
35	2	17	6	15	6	
36	1	30	3	
37	1	16	8	
38	2	5	13	36	4	
39	2	12	5	36	4	
40	2	18	7	32	3	
41	2	16	8	10	6	
42	2	4	15	15	6	
43	1	4	16	
44	2	7	11	13	7	
45	2	24	4	36	3	
46	1	13	9	
47	2	4	17	34	3	
48	2	6	15	7	11	
49	1	4	12	
50	1	34	3	
51	2	10	10	21	3	
52	1	11	9	
53	1	19	3	
54	2	5	11	20	3	
55	1	7	14	
56	2	34	4	33	3	
57	2	5	10	11	7	
58	2	4	15	8	14	
59	1	6	16	
60	2	8	9	4	9	
61	2	9	7	18	4	
62	1	23	2	
63	1	22	3	
64	2	5	14	4	12	
65	2	7	11	29	2	
66	1	10	8	
67	1	24	3	
68	1	5	17	
69	1	35	4	
70	1	28	3	
71	2	5	15	17	8	
72	2	10	6	32	3	
73	1	24	3	
74	1	18	9	
75	1	5	11	
76	2	8	15	8	14	
77	1	32	3	
78	1	31	3	
79	2	8	13	4	10	
80	2	5	11	11	5	
81	2	13	6	36	3	
82	1	17	5	
83	1	15	4	
84	1	8	14	
85	1	5	8	
86	1	20	3	
87	2	12	6	10	6	
88	1	5	17	
89	2	11	9	19	4	
90	1	7	10	
91	1	20	3	
92	2	12	8	15	7	
93	2	18	5	32	3	
94	1	5	9	
95	1	8	7	
96	2	18	4	25	3	
97	1	5	12	
98	1	29	3	
99	1	6	9	
100	2	6	8	31	2	
101	2	16	8	16	8	
102	1	12	6	
103	2	7	15	15	5	
104	1	7	13	
105	2	23	4	29	3	
106	2	11	8	18	5	
107	2	7	15	16	2	
108	1	7	12	
109	2	5	15	7	11	
110	1	14	9	
111	2	5	10	9	6	
112	1	10	10	
113	2	6	18	11	7	
114	1	35	4	
115	2	23	4	34	3	
116	2	25	3	20	2	
117	1	33	4	
118	2	5	17	7	16	
119	2	8	10	27	2	
120	1	7	11	
121	1	14	7	
122	1	8	11	
123	2	10	5	19	3	
124	1	34	3	
125	1	28	2	
126	2	16	8	33	3	
127	2	7	11	29	4	
128	1	5	10	
129	1	5	17	
130	2	7	13	13	8	
131	2	7	17	19	9	
132	1	17	3	
133	2	18	3	33	2	
134	2	7	9	24	3	
135	1	4	13	
136	1	14	4	
137	2	35	3	27	2	
138	1	4	9	
139	1	18	8	
140	2	34	3	22	3	
141	2	5	15	18	9	
142	1	5	15	
143	2	16	8	16	8	
144	2	7	12	16	7	
145	2	7	17	11	5	
146	2	28	3	22	3	
147	1	26	4	
148	2	8	11	8	9	
149	1	10	7	
150	2	7	15	7	9	
151	2	17	7	9	7	
152	1	21	3	
153	2	4	18	4	13	
154	2	8	18	35	2	
155	1	5	14	
156	2	10	8	11	6	
157	2	15	8	18	4	
158	1	22	4	
159	1	20	8	
160	1	33	4	
161	2	16	5	34	3	
162	2	25	3	18	3	
163	2	9	6	25	2	
164	1	17	6	
165	1	35	2	
166	2	5	17	16	7	
167	2	11	9	22	4	
168	2	13	9	16	5	
169	1	21	2	
170	2	6	14	14	5	
171	2	5	18	17	2	
172	2	7	11	36	3	
173	2	5	10	11	6	
174	1	6	16	
175	1	32	2	
176	1	18	4	
177	1	18	3	
178	2	7	18	8	12	
179	1	7	17	
180	1	18	7	
181	2	18	7	17	5	
182	2	29	4	17	3	
183	2	31	4	18	4	
184	1	17	4	
185	2	11	8	18	3	
186	1	8	5	
187	1	35	4	
188	2	19	10	33	2	
189	1	7	8	
190	1	20	4	
191	2	7	11	6	9	
192	2	5	16	4	15	
193	2	12	8	32	4	
194	2	14	9	33	3	
195	2	16	8	12	7	
196	1	14	7	
197	1	35	3	
198	1	30	3	
199	2	12	6	33	2	
